; benchmark generated from python API
(set-info :status unknown)
(declare-fun R () (_ BitVec 32))
(declare-fun rdi () (_ BitVec 32))
(assert
 (let (($x8648 (= (_ bv1 32) R)))
 (let ((?x6 ((_ extract 31 0) rdi)))
 (let ((?x12 (bvmul (_ bv30 32) ?x6)))
 (let ((?x35 ((_ extract 31 31) ?x12)))
 (let ((?x59 (concat (concat (concat (concat (concat ?x35 ?x35) ?x35) ?x35) ?x35) ?x35)))
 (let ((?x40 (concat (concat (concat (concat (concat ?x59 ?x35) ?x35) ?x35) ?x35) ?x35)))
 (let ((?x57 (concat (concat (concat (concat (concat ?x40 ?x35) ?x35) ?x35) ?x35) ?x35)))
 (let ((?x62 (concat (concat (concat (concat (concat ?x57 ?x35) ?x35) ?x35) ?x35) ?x35)))
 (let ((?x58 (concat (concat (concat (concat (concat ?x62 ?x35) ?x35) ?x35) ?x35) ?x35)))
 (let ((?x91 (concat (concat (concat (concat (concat ?x58 ?x35) ?x35) ?x35) ?x35) ?x35)))
 (let ((?x93 (concat (concat ?x91 ?x35) ?x12)))
 (let ((?x131 (bvashr ?x93 (_ bv31 64))))
 (let ((?x275 ((_ extract 30 0) ?x131)))
 (let ((?x34 (bvmul (_ bv2147483647 31) ?x275)))
 (let ((?x251 (bvmul (_ bv715827883 64) ?x93)))
 (let ((?x240 ((_ extract 62 32) ?x251)))
 (let ((?x132 ((_ extract 29 0) ?x131)))
 (let ((?x133 (bvmul (_ bv1073741823 30) ?x132)))
 (let ((?x270 ((_ extract 61 32) ?x251)))
 (let ((?x249 (bvadd ?x270 ?x133)))
 (let ((?x248 (concat ?x249 (_ bv0 1))))
 (let ((?x247 (bvadd (bvadd ?x248 ?x240) ?x34)))
 (let ((?x13 (concat ?x247 (_ bv0 1))))
 (let ((?x242 (bvmul (_ bv4294967295 32) ?x13)))
 (let ((?x274 (bvadd ?x12 ?x242)))
 (let (($x260 (= (_ bv0 32) ?x274)))
 (let (($x2958 (and $x260 $x8648)))
 (let (($x9900 (= (_ bv0 32) R)))
 (let (($x2960 (and (distinct (_ bv0 32) ?x274) true)))
 (let (($x9872 (and $x2960 $x9900)))
 (let (($x2959 (or $x9872 $x2958)))
 (let ((?x139 ((_ extract 31 0) ?x131)))
 (let ((?x94 (bvmul (_ bv1717986919 64) ?x93)))
 (let ((?x96 ((_ extract 63 32) ?x94)))
 (let ((?x95 ((_ extract 63 63) ?x94)))
 (let ((?x101 (concat (concat (concat (concat (concat ?x95 ?x95) ?x95) ?x95) ?x95) ?x95)))
 (let ((?x106 (concat (concat (concat (concat (concat ?x101 ?x95) ?x95) ?x95) ?x95) ?x95)))
 (let ((?x111 (concat (concat (concat (concat (concat ?x106 ?x95) ?x95) ?x95) ?x95) ?x95)))
 (let ((?x116 (concat (concat (concat (concat (concat ?x111 ?x95) ?x95) ?x95) ?x95) ?x95)))
 (let ((?x121 (concat (concat (concat (concat (concat ?x116 ?x95) ?x95) ?x95) ?x95) ?x95)))
 (let ((?x126 (concat (concat (concat (concat (concat ?x121 ?x95) ?x95) ?x95) ?x95) ?x95)))
 (let ((?x128 (concat (concat ?x126 ?x95) ?x96)))
 (let ((?x129 (bvashr ?x128 (_ bv1 64))))
 (let ((?x137 ((_ extract 31 0) ?x129)))
 (let ((?x138 (bvmul (_ bv4294967295 32) ?x137)))
 (let ((?x141 (bvadd (bvadd ?x12 (bvmul (_ bv4294967295 32) (concat (bvadd ((_ extract 29 0) ?x129) ?x133) (_ bv0 2)))) ?x138)))
 (let ((?x142 (bvadd ?x141 ?x139)))
 (let (($x168 (= (_ bv0 32) ?x142)))
 (let (($x8810 (and $x168 $x8648)))
 (let (($x238 (and (distinct (_ bv0 32) ?x142) true)))
 (let (($x8811 (and $x238 $x9900)))
 (let (($x1265 (or $x8811 $x8810)))
 (and $x1265 $x2959))))))))))))))))))))))))))))))))))))))))))))))))))))))
(check-sat)

